88 88
1 50
36 72
21 76
8 87
4 30
40 70
14 7
32 80
17 38
22 39
31 29
39 59
15 55
13 74
4 67
42 68
28 36
7 82
20 2
15 17
24 5
20 21
34 85
31 61
3 41
5 31
17 60
7 48
9 18
19 46
21 35
37 43
26 3
16 66
18 57
19 8
3 32
6 6
44 13
36 37
43 69
14 44
22 52
23 27
2 40
28 15
37 33
1 25
27 79
10 73
38 22
29 19
12 63
12 62
5 20
35 65
38 81
16 23
25 24
35 26
11 75
41 16
30 47
41 34
10 54
30 45
42 12
11 64
40 11
9 53
29 51
6 78
8 4
27 10
32 49
13 86
39 9
25 42
33 14
33 77
43 58
44 1
18 83
26 88
23 84
24 71
34 28
2 56
